(set-logic QF_AUFBV)
(declare-fun bvlambda_1_ () (_ BitVec 1))
(declare-fun bvlambda_2_ () (_ BitVec 1))
(declare-fun bvlambda_3_ () (_ BitVec 7))
(declare-fun bvlambda_4_ () (_ BitVec 1))
(declare-fun bvlambda_5_ () (_ BitVec 2))
(declare-fun a47 () (Array (_ BitVec 4) (_ BitVec 10)))
(declare-fun a48 () (Array (_ BitVec 1) (_ BitVec 4)))
(declare-fun a49 () (Array (_ BitVec 15) (_ BitVec 2)))
(declare-fun a50 () (Array (_ BitVec 16) (_ BitVec 14)))
(declare-fun a51 () (Array (_ BitVec 5) (_ BitVec 2)))
(declare-fun a52 () (Array (_ BitVec 1) (_ BitVec 10)))
(declare-fun a53 () (Array (_ BitVec 3) (_ BitVec 6)))
(assert
(let (($e1 (_ bv0 1)))
(let (($e2 (_ bv12 4)))
(let (($e3 (_ bv14 6)))
(let (($e4 (_ bv6 3)))
(let (($e5 (_ bv64278 16)))
(let (($e6 (_ bv426 14)))
(let (($e7 (_ bv1746 13)))
(let (($e8 (_ bv1462 14)))
(let (($e9 (_ bv1052 12)))
(let (($e10 (_ bv0 14)))
(let (($e11 (_ bv0 5)))
(let (($e12 (_ bv0 7)))
(let (($e13 (_ bv59090 16)))
(let (($e14 (_ bv0 2)))
(let (($e15 (_ bv0 15)))
(let (($e16 (_ bv0 10)))
(let (($e17 (_ bv0 13)))
(let (($e18 (_ bv16382 14)))
(let (($e19 (_ bv0 16)))
(let (($e20 (_ bv426 16)))
(let (($e21 (_ bv2 3)))
(let (($e22 (_ bv65532 16)))
(let (($e23 (_ bv14972 14)))
(let (($e24 (_ bv0 4)))
(let (($e25 (_ bv0 6)))
(let (($e26 (_ bv0 3)))
(let (($e27 (_ bv0 11)))
(let (($e28 (_ bv510 9)))
(let (($e29 (_ bv0 8)))
(let (($e30 (_ bv0 9)))
(let (($e31 (_ bv1022 10)))
(let (($e32 (_ bv1200 14)))
(let (($e33 (_ bv0 12)))
(let (($e34 (_ bv1462 13)))
(let (($e35 (_ bv28 5)))
(let (($e36 (_ bv1052 14)))
(let (($e37 (_ bv1052 11)))
(let (($e38 (_ bv426 13)))
(let (($e39 (_ bv3072 12)))
(let (($e40 (_ bv32 13)))
(let (($e41 (_ bv4 3)))
(let (($e54 (select a53 $e21)))
(let (($e55 (concat $e16 $e54)))
(let (($e56 (select a48 $e1)))
(let (($e57 (concat $e16 $e56)))
(let (($e58 (concat $e17 bvlambda_4_)))
(let (($e59 (concat $e58 bvlambda_5_)))
(let (($e60 (concat (bvnot $e17) bvlambda_4_)))
(let (($e61 (concat $e60 bvlambda_5_)))
(let (($e62 (ite (= #b1 bvlambda_4_) $e61 $e59)))
(let (($e63 (store a50 (bvnot $e13) $e10)))
(let (($e64 (store $e63 $e62 (bvnot $e18))))
(let (($e65 (store $e64 (bvnot $e22) $e57)))
(let (($e66 (select $e65 $e55)))
(let (($e67 ((_ extract 2 2) $e66)))
(let (($e68 (select a50 (bvnot $e20))))
(let (($e69 (concat $e14 $e68)))
(let (($e70 (concat (bvnot $e14) $e68)))
(let (($e71 ((_ extract 13 13) $e68)))
(let (($e72 (ite (= #b1 $e71) $e70 $e69)))
(let (($e73 (select a50 $e72)))
(let (($e74 (ite (= $e10 $e73) #b1 #b0)))
(let (($e75 (concat (bvnot $e17) (bvnot $e74))))
(let (($e76 (concat $e17 (bvnot $e74))))
(let (($e77 (ite (= #b1 $e74) $e76 $e75)))
(let (($e78 ((_ extract 12 0) $e77)))
(let (($e79 (ite (bvult (bvnot $e38) $e78) #b1 #b0)))
(let (($e80 ((_ extract 13 13) $e77)))
(let (($e81 (bvand $e80 (bvnot $e79))))
(let (($e82 (bvand (bvnot $e81) $e67)))
(let (($e83 (concat bvlambda_1_ bvlambda_2_)))
(let (($e84 (concat $e83 bvlambda_3_)))
(let (($e85 (bvadd (bvnot $e28) (bvnot $e84))))
(let (($e86 (concat $e11 $e85)))
(let (($e87 (concat (bvnot $e11) $e85)))
(let (($e88 ((_ extract 8 8) $e85)))
(let (($e89 (ite (= #b1 $e88) $e87 $e86)))
(let (($e90 (ite (= (bvnot $e6) $e89) #b1 #b0)))
(let (($e91 (bvand (bvnot $e90) (bvnot $e82))))
(let (($e92 (bvand $e90 $e82)))
(let (($e93 (bvand (bvnot $e92) (bvnot $e91))))
(let (($e94 (concat $e11 bvlambda_1_)))
(let (($e95 (concat $e94 bvlambda_2_)))
(let (($e96 (concat $e95 bvlambda_3_)))
(let (($e97 (concat (bvnot $e11) bvlambda_1_)))
(let (($e98 (concat $e97 bvlambda_2_)))
(let (($e99 (concat $e98 bvlambda_3_)))
(let (($e100 (ite (= #b1 bvlambda_1_) $e99 $e96)))
(let (($e101 (bvmul (bvnot $e8) $e100)))
(let (($e102 ((_ extract 5 0) $e101)))
(let (($e103 (select a47 (bvnot $e2))))
(let (($e104 ((_ extract 9 7) $e103)))
(let (($e105 (select a53 $e104)))
(let (($e106 (ite (= $e105 $e102) #b1 #b0)))
(let (($e107 ((_ extract 13 6) $e101)))
(let (($e108 (ite (= $e29 $e107) #b1 #b0)))
(let (($e109 (bvand $e108 $e106)))
(let (($e110 (concat $e24 $e105)))
(let (($e111 ((_ extract 6 6) $e101)))
(let (($e112 (store a52 (bvnot $e111) $e16)))
(let (($e113 (select $e112 (bvnot $e1))))
(let (($e114 (bvadd (bvnot $e31) (bvnot $e113))))
(let (($e115 ((_ extract 9 9) $e113)))
(let (($e116 (ite (= #b1 $e115) $e114 $e113)))
(let (($e117 (bvand (bvnot $e8) $e101)))
(let (($e118 (ite (bvult (bvnot $e117) $e96) #b1 #b0)))
(let (($e119 (concat $e30 $e118)))
(let (($e120 (bvurem $e119 $e116)))
(let (($e121 (bvadd $e113 $e120)))
(let (($e122 (ite (= $e16 $e120) #b1 #b0)))
(let (($e123 (bvand $e115 (bvnot $e122))))
(let (($e124 (ite (= #b1 $e123) $e121 $e16)))
(let (($e125 (ite (= #b1 $e115) $e16 $e120)))
(let (($e126 (bvand (bvnot $e125) (bvnot $e124))))
(let (($e127 (ite (bvult (bvnot $e126) $e110) #b1 #b0)))
(let (($e128 (bvand (bvnot $e127) (bvnot $e109))))
(let (($e129 ((_ extract 12 0) $e101)))
(let (($e130 (ite (= $e17 $e129) #b1 #b0)))
(let (($e131 ((_ extract 13 13) $e101)))
(let (($e132 (bvand (bvnot $e131) (bvnot $e130))))
(let (($e133 (bvand (bvnot $e132) $e128)))
(let (($e134 (select a50 $e19)))
(let (($e135 (ite (bvult $e36 $e134) #b1 #b0)))
(let (($e136 (bvand (bvnot $e135) $e132)))
(let (($e137 (bvand (bvnot $e136) (bvnot $e133))))
(let (($e138 (bvand $e137 $e93)))
(let (($e139 ((_ extract 3 0) $e85)))
(let (($e140 ((_ extract 9 9) $e103)))
(let (($e141 (store a52 $e1 $e16)))
(let (($e142 (select $e141 $e140)))
(let (($e143 (concat $e25 $e142)))
(let (($e144 (bvshl $e143  ((_ zero_extend 12) $e139))))
(let (($e145 ((_ extract 9 0) $e144)))
(let (($e146 (concat $e14 $e145)))
(let (($e147 (concat $e1 $e85)))
(let (($e148 ((_ extract 9 4) $e147)))
(let (($e149 (ite (= $e25 $e148) #b1 #b0)))
(let (($e150 (ite (= #b1 $e149) $e146 $e33)))
(let (($e151 (concat (bvnot $e14) $e145)))
(let (($e152 (ite (= #b1 $e149) $e151 $e39)))
(let (($e153 ((_ extract 9 9) $e144)))
(let (($e154 (bvand $e149 $e153)))
(let (($e155 (ite (= #b1 $e154) $e152 $e150)))
(let (($e156 ((_ extract 11 11) $e155)))
(let (($e157 (select a48 (bvnot $e1))))
(let (($e158 (ite (bvult $e56 $e157) #b1 #b0)))
(let (($e159 (concat (bvnot $e27) (bvnot $e158))))
(let (($e160 (concat $e27 (bvnot $e158))))
(let (($e161 (ite (= #b1 $e158) $e160 $e159)))
(let (($e162 (bvurem $e161 $e9)))
(let (($e163 ((_ extract 11 11) $e162)))
(let (($e164 (ite (= $e163 $e156) #b1 #b0)))
(let (($e165 ((_ extract 10 0) $e162)))
(let (($e166 ((_ extract 10 0) $e155)))
(let (($e167 (ite (bvult $e166 $e165) #b1 #b0)))
(let (($e168 (bvand $e167 $e164)))
(let (($e169 (bvand (bvnot $e163) $e156)))
(let (($e170 (bvand (bvnot $e169) (bvnot $e168))))
(let (($e171 (select a53 $e4)))
(let (($e172 ((_ extract 4 0) $e171)))
(let (($e173 (select a51 $e172)))
(let (($e174 (concat $e12 $e173)))
(let (($e175 (concat (bvnot $e12) $e173)))
(let (($e176 ((_ extract 1 1) $e173)))
(let (($e177 (ite (= #b1 $e176) $e175 $e174)))
(let (($e178 (ite (bvult $e84 $e177) #b1 #b0)))
(let (($e179 (concat (bvnot $e26) (bvnot $e178))))
(let (($e180 (concat $e26 (bvnot $e178))))
(let (($e181 (ite (= #b1 $e178) $e180 $e179)))
(let (($e182 (ite (bvult (bvnot $e2) $e181) #b1 #b0)))
(let (($e183 (bvand $e182 $e170)))
(let (($e184 (ite (bvult $e68 $e23) #b1 #b0)))
(let (($e185 (concat $e11 $e184)))
(let (($e186 (ite (bvult $e185 $e3) #b1 #b0)))
(let (($e187 (bvand (bvnot $e186) (bvnot $e183))))
(let (($e188 (bvand $e186 $e183)))
(let (($e189 (bvand (bvnot $e188) (bvnot $e187))))
(let (($e190 (ite (= $e189 (bvnot $e138)) #b1 #b0)))
(let (($e191 (concat $e12 bvlambda_1_)))
(let (($e192 (concat $e191 bvlambda_2_)))
(let (($e193 (concat $e192 bvlambda_3_)))
(let (($e194 (concat (bvnot $e12) bvlambda_1_)))
(let (($e195 (concat $e194 bvlambda_2_)))
(let (($e196 (concat $e195 bvlambda_3_)))
(let (($e197 (ite (= #b1 bvlambda_1_) $e196 $e193)))
(let (($e198 (bvudiv $e197 $e5)))
(let (($e199 ((_ extract 14 0) $e198)))
(let (($e200 (concat $e1 $e134)))
(let (($e201 (ite (bvult $e200 $e199) #b1 #b0)))
(let (($e202 ((_ extract 15 15) $e198)))
(let (($e203 (bvand (bvnot $e202) $e201)))
(let (($e204 (ite (= $e14 bvlambda_5_) #b1 #b0)))
(let (($e205 (bvand (bvnot bvlambda_4_) $e204)))
(let (($e206 (ite (= $e205 $e203) #b1 #b0)))
(let (($e207 ((_ extract 12 0) $e66)))
(let (($e208 (ite (bvult $e207 (bvnot $e40)) #b1 #b0)))
(let (($e209 ((_ extract 13 13) $e66)))
(let (($e210 (bvand $e209 $e208)))
(let (($e211 (bvand $e210 $e206)))
(let (($e212 ((_ extract 2 2) $e198)))
(let (($e213 (select a52 $e212)))
(let (($e214 (concat $e24 $e213)))
(let (($e215 (concat (bvnot $e24) $e213)))
(let (($e216 ((_ extract 9 9) $e213)))
(let (($e217 (ite (= #b1 $e216) $e215 $e214)))
(let (($e218 ((_ extract 13 13) $e217)))
(let (($e219 (bvand (bvnot $e131) (bvnot $e218))))
(let (($e220 (bvand $e131 $e218)))
(let (($e221 (bvand (bvnot $e220) (bvnot $e219))))
(let (($e222 (bvand (bvnot $e34) $e129)))
(let (($e223 ((_ extract 12 0) $e217)))
(let (($e224 (ite (bvult $e223 (bvnot $e222)) #b1 #b0)))
(let (($e225 (bvand $e224 $e221)))
(let (($e226 (bvand (bvnot $e220) (bvnot $e225))))
(let (($e227 (bvand (bvnot $e226) (bvnot $e211))))
(let (($e228 (concat (bvnot $e26) (bvnot $e142))))
(let (($e229 (ite (bvult $e228 $e78) #b1 #b0)))
(let (($e230 (bvand $e80 (bvnot $e229))))
(let (($e231 (ite (= $e230 $e227) #b1 #b0)))
(let (($e232 (ite (= $e231 $e190) #b1 #b0)))
(let (($e233 (select a48 bvlambda_2_)))
(let (($e234 (ite (= $e24 $e233) #b1 #b0)))
(let (($e235 (concat $e15 $e234)))
(let (($e236 (concat (bvnot $e15) $e234)))
(let (($e237 (ite (= #b1 $e234) $e236 $e235)))
(let (($e238 ((_ extract 13 0) $e237)))
(let (($e239 (ite (= $e134 $e238) #b1 #b0)))
(let (($e240 ((_ extract 15 14) $e237)))
(let (($e241 (ite (= $e14 $e240) #b1 #b0)))
(let (($e242 (bvand $e241 $e239)))
(let (($e243 (ite (= $e10 $e134) #b1 #b0)))
(let (($e244 (ite (= $e243 $e242) #b1 #b0)))
(let (($e245 ((_ extract 13 13) $e73)))
(let (($e246 (ite (= $e245 $e131) #b1 #b0)))
(let (($e247 ((_ extract 12 0) $e73)))
(let (($e248 (ite (bvult $e129 $e247) #b1 #b0)))
(let (($e249 (bvand $e248 $e246)))
(let (($e250 (bvand (bvnot $e245) $e131)))
(let (($e251 (bvand (bvnot $e250) (bvnot $e249))))
(let (($e252 (bvand $e251 (bvnot $e244))))
(let (($e253 (concat $e131 $e101)))
(let (($e254 (concat $e131 (bvnot $e8))))
(let (($e255 (bvand $e254 $e253)))
(let (($e256 (store a49 (bvnot $e255) (bvnot $e14))))
(let (($e257 (select $e256 (bvnot $e15))))
(let (($e258 (concat $e14 $e257)))
(let (($e259 (concat (bvnot $e14) $e257)))
(let (($e260 ((_ extract 1 1) $e257)))
(let (($e261 (ite (= #b1 $e260) $e259 $e258)))
(let (($e262 ((_ extract 2 0) $e261)))
(let (($e263 (ite (bvult (bvnot $e41) $e262) #b1 #b0)))
(let (($e264 ((_ extract 3 3) $e261)))
(let (($e265 (bvand (bvnot $e264) $e263)))
(let (($e266 (concat $e25 bvlambda_4_)))
(let (($e267 (concat $e266 bvlambda_5_)))
(let (($e268 (concat (bvnot $e25) bvlambda_4_)))
(let (($e269 (concat $e268 bvlambda_5_)))
(let (($e270 (ite (= #b1 bvlambda_4_) $e269 $e267)))
(let (($e271 (ite (bvult $e270 $e85) #b1 #b0)))
(let (($e272 (bvand (bvnot $e271) $e265)))
(let (($e273 (ite (bvult $e77 (bvnot $e117)) #b1 #b0)))
(let (($e274 (concat $e27 (bvnot $e273))))
(let (($e275 (concat $e16 bvlambda_4_)))
(let (($e276 (concat $e275 bvlambda_5_)))
(let (($e277 (concat (bvnot $e16) bvlambda_4_)))
(let (($e278 (concat $e277 bvlambda_5_)))
(let (($e279 (ite (= #b1 bvlambda_4_) $e278 $e276)))
(let (($e280 (bvand (bvnot $e7) $e279)))
(let (($e281 (bvand $e7 (bvnot $e279))))
(let (($e282 (bvand (bvnot $e281) (bvnot $e280))))
(let (($e283 ((_ extract 11 0) $e282)))
(let (($e284 (ite (bvult (bvnot $e283) $e274) #b1 #b0)))
(let (($e285 ((_ extract 12 12) $e282)))
(let (($e286 (bvand $e285 (bvnot $e284))))
(let (($e287 ((_ extract 2 0) $e157)))
(let (($e288 (select a53 $e287)))
(let (($e289 (concat $e29 $e288)))
(let (($e290 (concat (bvnot $e29) $e288)))
(let (($e291 ((_ extract 5 5) $e288)))
(let (($e292 (ite (= #b1 $e291) $e290 $e289)))
(let (($e293 (bvmul $e134 $e292)))
(let (($e294 (ite (bvult $e289 $e293) #b1 #b0)))
(let (($e295 (ite (= (bvnot $e294) $e286) #b1 #b0)))
(let (($e296 (bvand $e271 (bvnot $e295))))
(let (($e297 (bvand (bvnot $e296) (bvnot $e272))))
(let (($e298 (concat $e30 $e234)))
(let (($e299 (concat (bvnot $e30) $e234)))
(let (($e300 (ite (= #b1 $e234) $e299 $e298)))
(let (($e301 ((_ extract 9 9) $e300)))
(let (($e302 (ite (= $e140 $e301) #b1 #b0)))
(let (($e303 ((_ extract 8 0) $e103)))
(let (($e304 ((_ extract 8 0) $e300)))
(let (($e305 (ite (bvult $e304 $e303) #b1 #b0)))
(let (($e306 (bvand $e305 $e302)))
(let (($e307 (bvand (bvnot $e140) $e301)))
(let (($e308 (bvand (bvnot $e307) (bvnot $e306))))
(let (($e309 (bvand (bvnot $e308) $e297)))
(let (($e310 (bvand (bvnot $e309) (bvnot $e252))))
(let (($e311 (concat $e10 $e257)))
(let (($e312 (ite (bvult $e311 $e198) #b1 #b0)))
(let (($e313 (concat (bvnot $e17) (bvnot $e312))))
(let (($e314 (concat $e17 (bvnot $e312))))
(let (($e315 (ite (= #b1 $e312) $e314 $e313)))
(let (($e316 ((_ extract 13 13) $e315)))
(let (($e317 (ite (= $e209 $e316) #b1 #b0)))
(let (($e318 ((_ extract 12 0) $e315)))
(let (($e319 (ite (bvult $e318 $e207) #b1 #b0)))
(let (($e320 (bvand $e319 $e317)))
(let (($e321 (bvand (bvnot $e209) $e316)))
(let (($e322 (bvand (bvnot $e321) (bvnot $e320))))
(let (($e323 (concat $e24 $e142)))
(let (($e324 (concat (bvnot $e24) $e142)))
(let (($e325 ((_ extract 9 9) $e142)))
(let (($e326 (ite (= #b1 $e325) $e324 $e323)))
(let (($e327 (ite (= $e10 $e326) #b1 #b0)))
(let (($e328 (bvand $e327 $e322)))
(let (($e329 (bvand (bvnot $e327) (bvnot $e322))))
(let (($e330 (bvand (bvnot $e329) (bvnot $e328))))
(let (($e331 ((_ extract 4 0) $e288)))
(let (($e332 (ite (bvult (bvnot $e35) $e331) #b1 #b0)))
(let (($e333 (bvand (bvnot $e291) $e332)))
(let (($e334 (bvand (bvnot $e333) $e312)))
(let (($e335 (concat $e25 $e233)))
(let (($e336 (concat (bvnot $e25) $e233)))
(let (($e337 ((_ extract 3 3) $e233)))
(let (($e338 (ite (= #b1 $e337) $e336 $e335)))
(let (($e339 ((_ extract 9 9) $e338)))
(let (($e340 (ite (= $e325 $e339) #b1 #b0)))
(let (($e341 ((_ extract 8 0) $e338)))
(let (($e342 ((_ extract 8 0) $e142)))
(let (($e343 (ite (bvult $e342 $e341) #b1 #b0)))
(let (($e344 (bvand $e343 $e340)))
(let (($e345 (bvand $e325 (bvnot $e339))))
(let (($e346 (bvand (bvnot $e345) (bvnot $e344))))
(let (($e347 (bvand $e346 $e334)))
(let (($e348 (bvand $e347 (bvnot $e330))))
(let (($e349 (ite (= $e17 $e247) #b1 #b0)))
(let (($e350 (bvand (bvnot $e245) (bvnot $e349))))
(let (($e351 (bvand $e350 (bvnot $e178))))
(let (($e352 (bvand (bvnot $e351) $e348)))
(let (($e353 (bvand (bvnot $e352) (bvnot $e310))))
(let (($e354 (concat $e11 $e56)))
(let (($e355 (concat (bvnot $e11) $e56)))
(let (($e356 ((_ extract 3 3) $e56)))
(let (($e357 (ite (= #b1 $e356) $e355 $e354)))
(let (($e358 ((_ extract 8 8) $e357)))
(let (($e359 (ite (= $e358 bvlambda_1_) #b1 #b0)))
(let (($e360 (concat bvlambda_2_ bvlambda_3_)))
(let (($e361 ((_ extract 7 0) $e357)))
(let (($e362 (ite (bvult $e361 $e360) #b1 #b0)))
(let (($e363 (bvand $e362 $e359)))
(let (($e364 (bvand $e358 (bvnot bvlambda_1_))))
(let (($e365 (bvand (bvnot $e364) (bvnot $e363))))
(let (($e366 (bvand (bvnot $e365) $e353)))
(let (($e367 (ite (= $e19 $e198) #b1 #b0)))
(let (($e368 (ite (= $e10 $e68) #b1 #b0)))
(let (($e369 (bvand (bvnot $e368) $e367)))
(let (($e370 (bvadd (bvnot $e18) (bvnot $e66))))
(let (($e371 ((_ extract 13 13) $e370)))
(let (($e372 (concat $e14 $e162)))
(let (($e373 (concat (bvnot $e14) $e162)))
(let (($e374 (ite (= #b1 $e163) $e373 $e372)))
(let (($e375 ((_ extract 13 13) $e374)))
(let (($e376 (ite (= $e375 $e371) #b1 #b0)))
(let (($e377 ((_ extract 12 0) $e370)))
(let (($e378 ((_ extract 12 0) $e374)))
(let (($e379 (ite (bvult $e378 $e377) #b1 #b0)))
(let (($e380 (bvand $e379 $e376)))
(let (($e381 (bvand $e375 (bvnot $e371))))
(let (($e382 (bvand (bvnot $e381) (bvnot $e380))))
(let (($e383 (bvand (bvnot $e382) (bvnot $e369))))
(let (($e384 (ite (= $e100 $e101) #b1 #b0)))
(let (($e385 (bvand $e384 (bvnot $e383))))
(let (($e386 (concat $e11 $e204)))
(let (($e387 (concat $e11 (bvnot bvlambda_4_))))
(let (($e388 (bvand $e387 $e386)))
(let (($e389 (concat (bvnot $e11) $e204)))
(let (($e390 (concat (bvnot $e11) (bvnot bvlambda_4_))))
(let (($e391 (bvand $e390 $e389)))
(let (($e392 (ite (= #b1 $e205) (bvnot $e391) (bvnot $e388))))
(let (($e393 (ite (bvult $e392 $e105) #b1 #b0)))
(let (($e394 (concat $e29 $e54)))
(let (($e395 (concat (bvnot $e29) $e54)))
(let (($e396 ((_ extract 5 5) $e54)))
(let (($e397 (ite (= #b1 $e396) $e395 $e394)))
(let (($e398 (ite (bvult $e397 (bvnot $e117)) #b1 #b0)))
(let (($e399 (bvand $e398 (bvnot $e393))))
(let (($e400 (bvand (bvnot $e399) (bvnot $e385))))
(let (($e401 (ite (= $e12 bvlambda_3_) #b1 #b0)))
(let (($e402 (bvand (bvnot bvlambda_1_) (bvnot bvlambda_2_))))
(let (($e403 (bvand $e402 $e401)))
(let (($e404 (concat $e16 $e118)))
(let (($e405 (ite (bvult $e404 $e37) #b1 #b0)))
(let (($e406 (bvand (bvnot $e405) (bvnot $e403))))
(let (($e407 (bvand $e405 $e403)))
(let (($e408 (bvand (bvnot $e407) (bvnot $e406))))
(let (($e409 (ite (= (bvnot $e32) $e101) #b1 #b0)))
(let (($e410 (ite (= (bvnot $e409) $e408) #b1 #b0)))
(let (($e411 (bvand $e410 (bvnot $e400))))
(let (($e412 (ite (= $e56 $e24) #b1 #b0)))
(let (($e413 (bvand $e412 (bvnot $e205))))
(let (($e414 ((_ extract 8 4) $e101)))
(let (($e415 (select a51 $e414)))
(let (($e416 (concat $e12 $e415)))
(let (($e417 (ite (bvult $e84 $e416) #b1 #b0)))
(let (($e418 (bvand (bvnot $e417) (bvnot $e413))))
(let (($e419 (concat $e1 $e103)))
(let (($e420 (ite (bvult $e419 $e37) #b1 #b0)))
(let (($e421 (bvand $e420 (bvnot $e418))))
(let (($e422 (bvand (bvnot $e421) $e411)))
(let (($e423 (bvand $e422 $e366)))
(let (($e424 (concat $e14 $e134)))
(let (($e425 (concat $e14 $e370)))
(let (($e426 (concat (bvnot $e14) $e370)))
(let (($e427 (ite (= #b1 $e371) $e426 $e425)))
(let (($e428 (ite (bvult $e427 $e424) #b1 #b0)))
(let (($e429 ((_ extract 12 0) $e68)))
(let (($e430 (ite (= $e17 $e429) #b1 #b0)))
(let (($e431 (bvand (bvnot $e71) (bvnot $e430))))
(let (($e432 (bvand (bvnot $e431) (bvnot $e428))))
(let (($e433 (bvand (bvnot $e432) $e423)))
(let (($e434 (ite (= $e433 $e232) #b1 #b0)))
(let (($e435 (ite (= $e16 $e113) #b1 #b0)))
(let (($e436 (ite (= (bvnot $e16) $e113) #b1 #b0)))
(let (($e437 (ite (= $e288 $e25) #b1 #b0)))
(let (($e438 (bvand (bvnot $e437) (bvnot $e436))))
(let (($e439 (bvand $e438 (bvnot $e435))))
(let (($e440 (bvand $e439 $e434)))
 (not (= $e440 #b0)))))))))))))))))))))))))))))))))))))))))))))))))))))))))))))))))))))))))))))))))))))))))))))))))))))))))))))))))))))))))))))))))))))))))))))))))))))))))))))))))))))))))))))))))))))))))))))))))))))))))))))))))))))))))))))))))))))))))))))))))))))))))))))))))))))))))))))))))))))))))))))))))))))))))))))))))))))))))))))))))))))))))))))))))))))))))))))))))))))))))))))))))))))))))))))))))))))))))))))))))))))))))))))))))))))))))))))))
(check-sat)
(exit)
